c Generated map
c Size: 10 * 10, weights in range: 1 to 10, walls: True, with ratio 0.1
c dim 1 of 6
c
p sp 100 144
c graph contains 100 nodes and 144 arcs
c
a 1 11 7
a 11 1 7
a 1 2 6
a 2 1 6
a 2 12 5
a 12 2 5
a 2 3 8
a 3 2 8
a 3 13 6
a 13 3 6
a 3 4 7
a 4 3 7
a 4 14 1
a 14 4 1
a 4 5 4
a 5 4 4
a 5 15 8
a 15 5 8
a 5 6 4
a 6 5 4
a 6 16 3
a 16 6 3
a 6 7 9
a 7 6 9
a 7 17 7
a 17 7 7
a 7 8 10
a 8 7 10
a 8 9 5
a 9 8 5
a 9 19 10
a 19 9 10
a 9 10 9
a 10 9 9
a 10 20 4
a 20 10 4
a 11 21 10
a 21 11 10
a 11 12 10
a 12 11 10
a 12 22 10
a 22 12 10
a 12 13 7
a 13 12 7
a 13 23 5
a 23 13 5
a 13 14 4
a 14 13 4
a 14 24 2
a 24 14 2
a 14 15 2
a 15 14 2
a 15 16 5
a 16 15 5
a 16 17 2
a 17 16 2
a 17 27 9
a 27 17 9
a 19 29 8
a 29 19 8
a 19 20 9
a 20 19 9
a 20 30 8
a 30 20 8
a 21 31 3
a 31 21 3
a 21 22 3
a 22 21 3
a 22 32 3
a 32 22 3
a 22 23 9
a 23 22 9
a 23 33 5
a 33 23 5
a 23 24 9
a 24 23 9
a 24 34 6
a 34 24 6
a 27 37 8
a 37 27 8
a 27 28 6
a 28 27 6
a 28 38 2
a 38 28 2
a 28 29 1
a 29 28 1
a 29 39 3
a 39 29 3
a 29 30 5
a 30 29 5
a 30 40 9
a 40 30 9
a 31 41 4
a 41 31 4
a 31 32 4
a 32 31 4
a 32 42 7
a 42 32 7
a 32 33 7
a 33 32 7
a 33 43 3
a 43 33 3
a 33 34 9
a 34 33 9
a 34 44 1
a 44 34 1
a 34 35 9
a 35 34 9
a 35 45 5
a 45 35 5
a 35 36 10
a 36 35 10
a 36 46 5
a 46 36 5
a 36 37 7
a 37 36 7
a 37 38 6
a 38 37 6
a 38 48 8
a 48 38 8
a 38 39 7
a 39 38 7
a 39 49 3
a 49 39 3
a 39 40 10
a 40 39 10
a 40 50 8
a 50 40 8
a 41 51 6
a 51 41 6
a 41 42 8
a 42 41 8
a 42 52 8
a 52 42 8
a 42 43 8
a 43 42 8
a 43 53 6
a 53 43 6
a 43 44 10
a 44 43 10
a 44 54 1
a 54 44 1
a 44 45 9
a 45 44 9
a 45 55 1
a 55 45 1
a 45 46 9
a 46 45 9
a 46 56 5
a 56 46 5
a 48 58 5
a 58 48 5
a 48 49 8
a 49 48 8
a 49 59 3
a 59 49 3
a 49 50 5
a 50 49 5
a 51 52 9
a 52 51 9
a 52 62 2
a 62 52 2
a 52 53 9
a 53 52 9
a 53 63 9
a 63 53 9
a 53 54 7
a 54 53 7
a 54 64 3
a 64 54 3
a 54 55 5
a 55 54 5
a 55 65 2
a 65 55 2
a 55 56 2
a 56 55 2
a 56 57 8
a 57 56 8
a 57 67 7
a 67 57 7
a 57 58 10
a 58 57 10
a 58 59 8
a 59 58 8
a 59 69 4
a 69 59 4
a 62 72 7
a 72 62 7
a 62 63 2
a 63 62 2
a 63 73 1
a 73 63 1
a 63 64 8
a 64 63 8
a 64 74 3
a 74 64 3
a 64 65 1
a 65 64 1
a 65 75 2
a 75 65 2
a 67 77 3
a 77 67 3
a 69 70 4
a 70 69 4
a 70 80 4
a 80 70 4
a 71 81 10
a 81 71 10
a 71 72 10
a 72 71 10
a 72 82 10
a 82 72 10
a 72 73 5
a 73 72 5
a 73 83 7
a 83 73 7
a 73 74 1
a 74 73 1
a 74 84 6
a 84 74 6
a 74 75 6
a 75 74 6
a 75 85 4
a 85 75 4
a 75 76 2
a 76 75 2
a 76 86 5
a 86 76 5
a 76 77 10
a 77 76 10
a 77 87 1
a 87 77 1
a 77 78 4
a 78 77 4
a 78 88 9
a 88 78 9
a 80 90 3
a 90 80 3
a 81 91 10
a 91 81 10
a 81 82 2
a 82 81 2
a 82 92 10
a 92 82 10
a 82 83 8
a 83 82 8
a 83 93 5
a 93 83 5
a 83 84 2
a 84 83 2
a 84 94 1
a 94 84 1
a 84 85 9
a 85 84 9
a 85 86 2
a 86 85 2
a 86 96 8
a 96 86 8
a 86 87 3
a 87 86 3
a 87 97 2
a 97 87 2
a 87 88 10
a 88 87 10
a 88 98 2
a 98 88 2
a 88 89 2
a 89 88 2
a 89 99 10
a 99 89 10
a 89 90 5
a 90 89 5
a 90 100 8
a 100 90 8
a 91 92 1
a 92 91 1
a 92 93 5
a 93 92 5
a 93 94 9
a 94 93 9
a 96 97 10
a 97 96 10
a 97 98 1
a 98 97 1
a 98 99 6
a 99 98 6
a 99 100 8
a 100 99 8
